
  32    4
  10   10   10   10

   0   0   0   0   0   5 2 6 15 19 31 
   7   1   1   0   1   1 3 
   9   4   0   1   5   4 30 13 9 4 
   8   0   2   5   1   2 10 5 
   3   8   0   4   3   2 29 7 
   2   5   0   8   4   4 30 24 13 9 
   1   0   7   5   3   2 27 8 
   7   6   4   2   0   3 26 16 11 
   1   4   0   5   6   4 28 25 23 12 
   1   2   3   6   0   4 25 24 23 12 
   9   0   3   4   2   3 24 23 12 
   6   0   2   3   3   2 22 14 
   6   5   5   0   4   1 14 
   7   6   4   3   0   2 21 17 
   5   6   9   0   6   1 16 
   9   4   2   3   0   1 17 
   1   4   7   0   4   1 18 
   1   1   0   3   6   1 20 
   1   4   0   9   6   1 25 
   1   6   0   4   6   1 32
   9   3   2   4   0   1 32
   6   0   6   3   3   1 32
   8   3   5   5   0   1 32
   9   3   3   5   0   1 32
   1   2   2   2   0   1 32
   6   6   0   4   2   1 32
   8   2   5   0   4   1 32
   6   6   0   2   4   1 32
   1   2   2   4   0   1 32
   4   0   6   4   3   1 32
   7   3   0   2   8   1 32
   0   0   0   0   0   0 
